(set-info :origin "SVCOMP13 benchmarks generated by Arie Gurfinkel")
(set-info :status sat)
(set-logic HORN)
(declare-fun cp-rel-bb2.i.i23.i.i () Bool)
(declare-fun cp-rel-entry () Bool)
(declare-fun cp-rel-bb1.i.i (Real Real Real Real Real) Bool)
(assert |cp-rel-entry|)
(assert (forall ((?A Real) (?B Real) (?C Real) (?D Real) (?E Real) (?F Bool) )(let (($x619821 (and |cp-rel-entry| (<= ?E 0.0) (>= ?D 1.0) (<= ?D 1.0) (>= ?C 0.0) (<= ?C 0.0) (>= ?B 0.0) (<= ?B 0.0) (>= ?A 1.0) (<= ?A 1.0) (= ?F true) (>= ?E 0.0))))
(=> $x619821 (|cp-rel-bb1.i.i| ?A ?B ?C ?D ?E))))
)
(assert (forall ((?A Real) (?B Real) (?C Real) (?D Real) (?E Real) (?F Real) (?G Real) (?H Real) (?I Real) (?J Real) (?K Bool) (?L Bool) (?M Bool) (?N Bool) (?O Bool) (?P Bool) (?Q Real) (?R Real) (?S Bool) (?T Bool) (?U Bool) (?V Bool) (?W Bool) (?X Bool) (?Y Real) (?Z Real) (?A1 Bool) (?B1 Bool) (?C1 Bool) (?D1 Bool) (?E1 Bool) (?F1 Bool) (?G1 Bool) (?H1 Real) (?I1 Bool) (?J1 Bool) (?K1 Bool) (?L1 Bool) (?M1 Bool) (?N1 Bool) (?O1 Real) (?P1 Real) (?Q1 Bool) (?R1 Bool) (?S1 Bool) (?T1 Bool) (?U1 Bool) (?V1 Bool) (?W1 Bool) (?X1 Bool) (?Y1 Bool) (?Z1 Bool) (?A2 Bool) (?B2 Bool) (?C2 Bool) (?D2 Real) (?E2 Real) (?F2 Real) (?G2 Real) (?H2 Bool) (?I2 Bool) (?J2 Bool) (?K2 Bool) (?L2 Bool) (?M2 Bool) (?N2 Bool) (?O2 Bool) (?P2 Real) (?Q2 Bool) (?R2 Real) (?S2 Real) (?T2 Bool) (?U2 Real) (?V2 Real) (?W2 Bool) (?X2 Real) (?Y2 Bool) (?Z2 Bool) (?A3 Bool) )(let (($x329364 (|cp-rel-bb1.i.i| ?F ?G ?H ?I ?J)))
(let (($x637360 (or (not ?K) (and ?L ?M (not ?N)))))
(let (($x323101 (or (not ?K) ?M)))
(let (($x405816 (not ?O)))
(let (($x900998 (or $x405816 (and ?K ?P (<= ?Q ?R) (>= ?Q ?R)) (and ?L ?S ?N (<= ?Q ?D) (>= ?Q ?D)))))
(let (($x359325 (or $x405816 (and ?P (not ?S)) (and ?S (not ?P)))))
(let (($x3733 (or (not ?T) (and ?O ?U (not ?V)))))
(let (($x884899 (or (not ?T) ?U)))
(let (($x428810 (not ?W)))
(let (($x700818 (or $x428810 (and ?T ?X (<= ?Y ?Z) (>= ?Y ?Z)) (and ?O ?A1 ?V (<= ?Y ?C) (>= ?Y ?C)))))
(let (($x836083 (or $x428810 (and ?X (not ?A1)) (and ?A1 (not ?X)))))
(let (($x467856 (or (not ?B1) (and ?W ?C1 ?D1))))
(let (($x133707 (or (not ?B1) ?C1)))
(let (($x222102 (not ?E1)))
(let (($x415171 (or $x222102 (and ?B1 ?F1 ?G1 (<= ?H1 ?A) (>= ?H1 ?A)) (and ?W ?I1 (not ?D1) (<= ?H1 1.0) (>= ?H1 1.0)))))
(let (($x321466 (or $x222102 (and ?F1 (not ?I1)) (and ?I1 (not ?F1)))))
(let (($x284361 (or (not ?J1) (and ?E1 ?K1 (not ?L1)))))
(let (($x892129 (or (not ?J1) ?K1)))
(let (($x851903 (or (not ?M1) (and ?J1 ?N1 (<= ?O1 ?P1) (>= ?O1 ?P1)) (and ?E1 ?Q1 ?L1 (<= ?O1 ?Q) (>= ?O1 ?Q)))))
(let (($x636692 (or (not ?M1) (and ?N1 (not ?Q1)) (and ?Q1 (not ?N1)))))
(let (($x402983 (or (not ?R1) (and ?M1 ?S1 (not ?T1)))))
(let (($x319010 (or (not ?R1) ?S1)))
(let (($x846512 (or (not ?U1) (and ?R1 ?V1 ?L1))))
(let (($x284963 (or (not ?U1) ?V1)))
(let (($x626692 (or (not ?W1) (and ?R1 ?X1 (not ?L1)))))
(let (($x128216 (or (not ?W1) ?X1)))
(let (($x625027 (or (not ?Y1) (and ?W1 ?Z1 ?A2))))
(let (($x388522 (or (not ?Y1) ?Z1)))
(let (($x343538 (and ?B1 ?K2 (not ?G1) (<= ?D2 0.0) (>= ?D2 0.0) (<= ?E2 ?Q) (>= ?E2 ?Q) (<= ?F2 0.0) (>= ?F2 0.0))))
(let (($x422194 (>= ?E2 ?O1)))
(let (($x245890 (<= ?E2 ?O1)))
(let (($x564768 (>= ?D2 ?H1)))
(let (($x206450 (<= ?D2 ?H1)))
(let (($x345190 (and ?M1 ?J2 ?T1 $x206450 $x564768 $x245890 $x422194 (<= ?F2 ?B) (>= ?F2 ?B))))
(let (($x413768 (and ?W1 ?I2 (not ?A2) $x206450 $x564768 $x245890 $x422194 (<= ?F2 0.0) (>= ?F2 0.0))))
(let (($x197338 (not ?B2)))
(let (($x66561 (or $x197338 (and ?U1 ?C2 $x206450 $x564768 $x245890 $x422194 (<= ?F2 ?G2) (>= ?F2 ?G2)) (and ?Y1 ?H2 $x206450 $x564768 $x245890 $x422194 (<= ?F2 ?B) (>= ?F2 ?B)) $x413768 $x345190 $x343538)))
(let (($x64686 (or $x197338 (and ?C2 (not ?H2) (not ?I2) (not ?J2) (not ?K2)) (and ?H2 (not ?C2) (not ?I2) (not ?J2) (not ?K2)) (and ?I2 (not ?C2) (not ?H2) (not ?J2) (not ?K2)) (and ?J2 (not ?C2) (not ?H2) (not ?I2) (not ?K2)) (and ?K2 (not ?C2) (not ?H2) (not ?I2) (not ?J2)))))
(let (($x157761 (or (not ?L2) (and ?B2 ?M2 (not ?N2)))))
(let (($x36993 (or (not ?L2) ?M2)))
(let (($x88056 (and ?B2 ?N2 (<= ?F ?D2) (>= ?F ?D2) (<= ?G ?F2) (>= ?G ?F2) (<= ?H ?Y) (>= ?H ?Y) (<= ?I ?E2) (>= ?I ?E2) (<= ?J 0.0) (>= ?J 0.0))))
(let (($x863310 (and ?L2 ?O2 (<= ?F ?D2) (>= ?F ?D2) (<= ?G ?F2) (>= ?G ?F2) (<= ?H ?Y) (>= ?H ?Y) (<= ?I ?E2) (>= ?I ?E2) (<= ?J 1.0) (>= ?J 1.0))))
(let (($x270185 (= ?N (= ?P2 0.0))))
(let (($x201075 (= ?R2 (ite ?Q2 1.0 0.0))))
(let (($x164682 (= ?V (= ?S2 0.0))))
(let (($x788881 (= ?Z (ite ?T2 1.0 0.0))))
(let (($x245283 (= ?D1 (= ?U2 0.0))))
(let (($x279103 (= ?G1 (= ?V2 0.0))))
(let (($x506293 (= ?W2 (not (<= ?Q 0.0)))))
(let (($x113697 (= ?X2 (+ (~ 1.0) ?Q))))
(let (($x436052 (= ?P1 (ite ?W2 ?X2 ?Q))))
(let (($x346019 (= ?T1 (= ?H1 0.0))))
(let (($x194825 (= ?Y2 (not (<= ?O1 1.0)))))
(let (($x563713 (= ?A2 (= ?Y 0.0))))
(let (($x132260 (= ?Z2 (= ?Y 0.0))))
(let (($x405251 (= ?A3 (= ?F2 0.0))))
(let (($x757324 (= ?N2 (or ?A3 ?Z2))))
(let (($x831389 (and (|cp-rel-bb1.i.i| ?A ?B ?C ?D ?E) $x757324 $x405251 $x132260 $x563713 (= ?G2 (ite ?Y2 1.0 ?B)) $x194825 $x346019 $x436052 $x113697 $x506293 (= ?L1 (= ?B 0.0)) $x279103 $x245283 $x788881 (= ?T2 (= ?C 0.0)) $x164682 (= ?R (+ ?R2 ?D)) $x201075 (= ?Q2 (not (<= 2.0 ?D))) $x270185 (or $x863310 $x88056) $x36993 $x157761 $x64686 $x66561 $x388522 $x625027 $x128216 $x626692 $x284963 $x846512 $x319010 $x402983 $x636692 $x851903 $x892129 $x284361 $x321466 $x415171 $x133707 $x467856 $x836083 $x700818 $x884899 $x3733 $x359325 $x900998 $x323101 $x637360 (= ?O2 (= ?E 0.0)))))
(=> $x831389 $x329364))))))))))))))))))))))))))))))))))))))))))))))))))))))))))))
)
(assert (forall ((?A Real) (?B Real) (?C Real) (?D Real) (?E Real) (?F Bool) (?G Bool) (?H Bool) (?I Bool) (?J Bool) (?K Bool) (?L Real) (?M Real) (?N Bool) (?O Bool) (?P Bool) (?Q Bool) (?R Bool) (?S Bool) (?T Real) (?U Real) (?V Bool) (?W Bool) (?X Bool) (?Y Bool) (?Z Bool) (?A1 Bool) (?B1 Bool) (?C1 Real) (?D1 Bool) (?E1 Bool) (?F1 Bool) (?G1 Bool) (?H1 Bool) (?I1 Bool) (?J1 Real) (?K1 Real) (?L1 Bool) (?M1 Bool) (?N1 Bool) (?O1 Bool) (?P1 Bool) (?Q1 Bool) (?R1 Bool) (?S1 Bool) (?T1 Bool) (?U1 Bool) (?V1 Bool) (?W1 Bool) (?X1 Bool) (?Y1 Real) (?Z1 Real) (?A2 Real) (?B2 Real) (?C2 Bool) (?D2 Bool) (?E2 Bool) (?F2 Bool) (?G2 Bool) (?H2 Bool) (?I2 Bool) (?J2 Bool) (?K2 Real) (?L2 Bool) (?M2 Real) (?N2 Real) (?O2 Bool) (?P2 Real) (?Q2 Real) (?R2 Bool) (?S2 Real) (?T2 Bool) (?U2 Bool) (?V2 Bool) )(let (($x637360 (or (not ?F) (and ?G ?H (not ?I)))))
(let (($x323101 (or (not ?F) ?H)))
(let (($x405816 (not ?J)))
(let (($x873194 (or $x405816 (and ?F ?K (<= ?L ?M) (>= ?L ?M)) (and ?G ?N ?I (<= ?L ?D) (>= ?L ?D)))))
(let (($x359325 (or $x405816 (and ?K (not ?N)) (and ?N (not ?K)))))
(let (($x3733 (or (not ?O) (and ?J ?P (not ?Q)))))
(let (($x884899 (or (not ?O) ?P)))
(let (($x428810 (not ?R)))
(let (($x388257 (or $x428810 (and ?O ?S (<= ?T ?U) (>= ?T ?U)) (and ?J ?V ?Q (<= ?T ?C) (>= ?T ?C)))))
(let (($x836083 (or $x428810 (and ?S (not ?V)) (and ?V (not ?S)))))
(let (($x467856 (or (not ?W) (and ?R ?X ?Y))))
(let (($x133707 (or (not ?W) ?X)))
(let (($x222102 (not ?Z)))
(let (($x101848 (or $x222102 (and ?W ?A1 ?B1 (<= ?C1 ?A) (>= ?C1 ?A)) (and ?R ?D1 (not ?Y) (<= ?C1 1.0) (>= ?C1 1.0)))))
(let (($x321466 (or $x222102 (and ?A1 (not ?D1)) (and ?D1 (not ?A1)))))
(let (($x284361 (or (not ?E1) (and ?Z ?F1 (not ?G1)))))
(let (($x892129 (or (not ?E1) ?F1)))
(let (($x851903 (or (not ?H1) (and ?E1 ?I1 (<= ?J1 ?K1) (>= ?J1 ?K1)) (and ?Z ?L1 ?G1 (<= ?J1 ?L) (>= ?J1 ?L)))))
(let (($x636692 (or (not ?H1) (and ?I1 (not ?L1)) (and ?L1 (not ?I1)))))
(let (($x402983 (or (not ?M1) (and ?H1 ?N1 (not ?O1)))))
(let (($x319010 (or (not ?M1) ?N1)))
(let (($x846512 (or (not ?P1) (and ?M1 ?Q1 ?G1))))
(let (($x284963 (or (not ?P1) ?Q1)))
(let (($x626692 (or (not ?R1) (and ?M1 ?S1 (not ?G1)))))
(let (($x128216 (or (not ?R1) ?S1)))
(let (($x625027 (or (not ?T1) (and ?R1 ?U1 ?V1))))
(let (($x388522 (or (not ?T1) ?U1)))
(let (($x343538 (and ?W ?F2 (not ?B1) (<= ?Y1 0.0) (>= ?Y1 0.0) (<= ?Z1 ?L) (>= ?Z1 ?L) (<= ?A2 0.0) (>= ?A2 0.0))))
(let (($x422194 (>= ?Z1 ?J1)))
(let (($x245890 (<= ?Z1 ?J1)))
(let (($x564768 (>= ?Y1 ?C1)))
(let (($x206450 (<= ?Y1 ?C1)))
(let (($x272077 (and ?H1 ?E2 ?O1 $x206450 $x564768 $x245890 $x422194 (<= ?A2 ?B) (>= ?A2 ?B))))
(let (($x413768 (and ?R1 ?D2 (not ?V1) $x206450 $x564768 $x245890 $x422194 (<= ?A2 0.0) (>= ?A2 0.0))))
(let (($x197338 (not ?W1)))
(let (($x348857 (or $x197338 (and ?P1 ?X1 $x206450 $x564768 $x245890 $x422194 (<= ?A2 ?B2) (>= ?A2 ?B2)) (and ?T1 ?C2 $x206450 $x564768 $x245890 $x422194 (<= ?A2 ?B) (>= ?A2 ?B)) $x413768 $x272077 $x343538)))
(let (($x64686 (or $x197338 (and ?X1 (not ?C2) (not ?D2) (not ?E2) (not ?F2)) (and ?C2 (not ?X1) (not ?D2) (not ?E2) (not ?F2)) (and ?D2 (not ?X1) (not ?C2) (not ?E2) (not ?F2)) (and ?E2 (not ?X1) (not ?C2) (not ?D2) (not ?F2)) (and ?F2 (not ?X1) (not ?C2) (not ?D2) (not ?E2)))))
(let (($x157761 (or (not ?G2) (and ?W1 ?H2 (not ?I2)))))
(let (($x36993 (or (not ?G2) ?H2)))
(let (($x270185 (= ?I (= ?K2 0.0))))
(let (($x201075 (= ?M2 (ite ?L2 1.0 0.0))))
(let (($x164682 (= ?Q (= ?N2 0.0))))
(let (($x788881 (= ?U (ite ?O2 1.0 0.0))))
(let (($x245283 (= ?Y (= ?P2 0.0))))
(let (($x279103 (= ?B1 (= ?Q2 0.0))))
(let (($x506293 (= ?R2 (not (<= ?L 0.0)))))
(let (($x113697 (= ?S2 (+ (~ 1.0) ?L))))
(let (($x436052 (= ?K1 (ite ?R2 ?S2 ?L))))
(let (($x346019 (= ?O1 (= ?C1 0.0))))
(let (($x194825 (= ?T2 (not (<= ?J1 1.0)))))
(let (($x563713 (= ?V1 (= ?T 0.0))))
(let (($x132260 (= ?U2 (= ?T 0.0))))
(let (($x405251 (= ?V2 (= ?A2 0.0))))
(let (($x757324 (= ?I2 (or ?V2 ?U2))))
(let (($x329364 (|cp-rel-bb1.i.i| ?A ?B ?C ?D ?E)))
(let (($x221844 (and $x329364 $x757324 $x405251 $x132260 $x563713 (= ?B2 (ite ?T2 1.0 ?B)) $x194825 $x346019 $x436052 $x113697 $x506293 (= ?G1 (= ?B 0.0)) $x279103 $x245283 $x788881 (= ?O2 (= ?C 0.0)) $x164682 (= ?M (+ ?M2 ?D)) $x201075 (= ?L2 (not (<= 2.0 ?D))) $x270185 (not (= ?J2 true)) (= ?G2 true) $x36993 $x157761 $x64686 $x348857 $x388522 $x625027 $x128216 $x626692 $x284963 $x846512 $x319010 $x402983 $x636692 $x851903 $x892129 $x284361 $x321466 $x101848 $x133707 $x467856 $x836083 $x388257 $x884899 $x3733 $x359325 $x873194 $x323101 $x637360 (= ?J2 (= ?E 0.0)))))
(=> $x221844 |cp-rel-bb2.i.i23.i.i|))))))))))))))))))))))))))))))))))))))))))))))))))))))))))
)
(assert (not cp-rel-bb2.i.i23.i.i))
(check-sat)
